
Gurobi 6.5.2 (linux64) logging started Mon Dec 12 22:09:08 2016


Gurobi 6.5.2 (linux64) logging started Mon Dec 12 22:09:08 2016

Optimize a model with 41 rows, 153 columns and 315 nonzeros
Coefficient statistics:
  Matrix range    [1e+00, 2e+00]
  Objective range [2e+00, 1e+02]
  Bounds range    [1e+00, 1e+00]
  RHS range       [1e+00, 1e+00]
Presolve removed 20 rows and 16 columns
Presolve time: 0.00s
Presolved: 21 rows, 137 columns, 273 nonzeros
Variable types: 0 continuous, 137 integer (137 binary)

Root relaxation: objective 4.945000e+02, 24 iterations, 0.00 seconds

    Nodes    |    Current Node    |     Objective Bounds      |     Work
 Expl Unexpl |  Obj  Depth IntInf | Incumbent    BestBd   Gap | It/Node Time

     0     0  494.50000    0    4          -  494.50000      -     -    0s
H    0     0                     503.0000000  494.50000  1.69%     -    0s
H    0     0                     502.0000000  494.50000  1.49%     -    0s

Cutting planes:
  Gomory: 1
  Zero half: 1
  Lazy constraints: 2

Explored 0 nodes (26 simplex iterations) in 0.00 seconds
Thread count was 8 (of 8 available processors)

Optimal solution found (tolerance 1.00e-04)
Best objective 5.020000000000e+02, best bound 5.020000000000e+02, gap 0.0%
